c Output_time 26.03.2020 18:15:35_+0100 1585242935505788474
c ** Program information **
c program_name                          "QBRG_debug"
c version                               "0.3.20"
c date                                  "25.3.2020"
c gid_id                                "673970833836058123f633335630c185360d632e"
c author                                "Oliver Kullmann"
c url                                   "https://github.com/OKullmann/oklibrary/blob/master/Satisfiability/Transformers/Generators/Random/QBRG.cpp"
c ** Machine information **
c machine_name                          "chyna-Lenovo-G50-70"
c bogomips                              3791.08
c ** Compilation information **
c compiler_version                      "g++ 7.5.0"
c compilation_date                      "Mar_26_2020 11:16:30"
c compilation_options                   "--std=c++17 -pedantic -fmax-errors=5 -Wall -Wextra -g -D_GLIBCXX_DEBUG"
c NDEBUG                                0
c OPTIMIZE                              0
c ** Parameters **
c command-line                          "./QBRG_debug" "a40 e40 a40 40" "655*1,1|2-2,1|3-3,1|4-4,1" "" "1,t" ""
c output                                "QuBlRaGe_160_655_1585242935346434180.qdimacs"
c options                               "filtered,renamed"
c num_quantifier_blocks                 4
c  quantifier_blocks                    1:a1-40 2:e41-80 3:a81-120 4:e121-160
c num_clause-blocks                     1
c  clause-blocks                        655 * {1-40,1,1/2} | {41-80,1,1/2} | {81-120,1,1/2} | {121-160,1,1/2}
c num_e-seeds                           37+2=39
c  e-seeds                              1 0 1 0 5 160 2 40 0 40 1 40 0 40 1 655 4 1 1 1 1 2 2 2 1 1 2 3 3 1 1 2 4 4 1 1 2 1 1585242935346433153
p cnf 160 655
a 1 2 3 4 5 6 7 8 9 10 11 12 13 14 15 16 17 18 19 20 21 22 23 24 25 26 27 28 29 30 31 32 33 34 35 36 37 38 39 40 0
e 41 42 43 44 45 46 47 48 49 50 51 52 53 54 55 56 57 58 59 60 61 62 63 64 65 66 67 68 69 70 71 72 73 74 75 76 77 78 79 80 0
a 81 82 83 84 85 86 87 88 89 90 91 92 93 94 95 96 97 98 99 100 101 102 103 104 105 106 107 108 109 110 111 112 113 114 115 116 117 118 119 120 0
e 121 122 123 124 125 126 127 128 129 130 131 132 133 134 135 136 137 138 139 140 141 142 143 144 145 146 147 148 149 150 151 152 153 154 155 156 157 158 159 160 0
27 69 -94 -121 0
2 -67 94 -121 0
34 -46 101 -121 0
-25 -53 -103 -121 0
1 -73 103 -121 0
16 75 106 -121 0
-13 78 107 -121 0
-31 52 -108 -121 0
24 -65 116 -121 0
-33 44 -117 -121 0
29 -61 117 -121 0
33 -50 118 -121 0
11 -53 88 121 0
39 -68 -90 121 0
40 -65 99 121 0
-33 56 -102 121 0
-13 77 -106 121 0
-19 58 115 121 0
-14 -60 118 121 0
15 -62 120 121 0
-34 50 -85 -122 0
28 70 91 -122 0
-36 67 -94 -122 0
-31 -52 -99 -122 0
-13 -56 99 -122 0
-3 -71 -109 -122 0
-30 55 -111 -122 0
10 55 -112 -122 0
29 55 116 -122 0
35 -66 -120 -122 0
17 -63 120 -122 0
-27 -64 120 -122 0
39 70 81 122 0
-25 57 -90 122 0
9 -80 -94 122 0
-3 -43 94 122 0
4 -70 -102 122 0
-25 72 88 -123 0
4 50 -112 -123 0
-31 65 -115 -123 0
16 -50 117 -123 0
-5 48 -120 -123 0
28 44 83 123 0
9 -67 85 123 0
18 61 86 123 0
27 -43 -90 123 0
32 -56 -99 123 0
-21 -52 -103 123 0
-35 -58 -107 123 0
6 -60 -117 123 0
32 -68 -118 123 0
-7 -48 -81 -124 0
2 -61 -85 -124 0
-10 50 -117 -124 0
-35 -71 -87 124 0
-1 60 93 124 0
-17 79 -97 124 0
14 -80 103 124 0
33 -75 -105 124 0
4 -76 -111 124 0
39 53 113 124 0
26 73 -115 124 0
-5 55 115 124 0
36 41 117 124 0
-31 -52 -118 124 0
21 77 -120 124 0
22 -46 82 -125 0
37 -58 -96 -125 0
-20 51 102 -125 0
-18 44 108 -125 0
-12 48 -109 -125 0
18 63 -110 -125 0
14 -66 112 -125 0
-32 -46 87 125 0
39 45 -88 125 0
37 79 93 125 0
37 79 96 125 0
-36 -69 98 125 0
-33 -53 -101 125 0
-21 59 -108 125 0
-15 -55 -115 125 0
36 -53 -116 125 0
33 47 -117 125 0
-13 -61 117 125 0
29 79 117 125 0
3 -72 -83 -126 0
2 65 83 -126 0
-14 48 -85 -126 0
-9 -70 89 -126 0
17 42 -90 -126 0
33 67 -96 -126 0
22 -42 98 -126 0
36 -70 -99 -126 0
-27 46 99 -126 0
-5 -72 -105 -126 0
-6 65 108 -126 0
21 71 108 -126 0
-39 62 -109 -126 0
-8 -54 85 126 0
28 -60 96 126 0
-2 -77 -97 126 0
3 74 99 126 0
-1 48 -112 126 0
-18 80 112 126 0
31 -41 113 126 0
-38 -42 115 126 0
-19 77 117 126 0
-5 80 119 126 0
23 71 -98 -127 0
8 45 100 -127 0
25 44 102 -127 0
35 -59 -103 -127 0
-10 62 -108 -127 0
36 -67 -108 -127 0
-6 69 111 -127 0
38 77 112 -127 0
-37 53 115 -127 0
32 41 -119 -127 0
-29 53 81 127 0
-21 67 -82 127 0
38 69 86 127 0
17 -48 -94 127 0
-27 54 94 127 0
-18 -45 -104 127 0
-28 -68 -105 127 0
20 68 -107 127 0
10 62 -83 -128 0
-14 42 84 -128 0
-20 -69 -86 -128 0
-2 80 -87 -128 0
25 -68 -105 -128 0
-28 -70 -108 -128 0
-5 42 -113 -128 0
-35 -52 -85 128 0
22 43 -87 128 0
-33 -67 87 128 0
-7 -80 90 128 0
25 -68 95 128 0
-18 -73 98 128 0
-34 51 -105 128 0
5 79 106 128 0
21 43 107 128 0
-26 -78 93 -129 0
-4 -65 -100 -129 0
18 -74 105 -129 0
-35 62 117 -129 0
8 -50 82 129 0
4 -61 82 129 0
1 -69 94 129 0
-39 72 97 129 0
-5 -76 97 129 0
-24 78 101 129 0
-2 54 110 129 0
-31 69 111 129 0
13 75 81 -130 0
5 -70 -83 -130 0
-20 66 -86 -130 0
-23 -51 -99 -130 0
11 -64 101 -130 0
33 -59 -103 -130 0
15 59 -103 -130 0
-13 45 -108 -130 0
-13 -54 -117 -130 0
7 -45 117 -130 0
-31 -52 119 -130 0
-10 -60 84 130 0
-6 65 -87 130 0
-7 -60 87 130 0
16 -68 90 130 0
19 50 -91 130 0
-37 -69 99 130 0
4 69 108 130 0
-17 -60 88 -131 0
-17 -44 94 -131 0
10 -70 -106 -131 0
-9 42 -107 -131 0
27 65 117 -131 0
3 53 -82 131 0
-31 51 -86 131 0
-22 -69 86 131 0
40 -57 88 131 0
17 49 -91 131 0
-8 -78 -93 131 0
-18 76 94 131 0
23 -60 -118 131 0
11 61 -81 -132 0
-3 -41 82 -132 0
-17 -43 -85 -132 0
-30 -62 85 -132 0
38 -64 85 -132 0
-27 -74 -90 -132 0
17 -74 -103 -132 0
5 -53 -109 -132 0
20 -60 112 -132 0
25 46 116 -132 0
-30 58 119 -132 0
-27 -42 -84 132 0
30 56 84 132 0
-14 45 -90 132 0
11 -44 -96 132 0
-28 -43 96 132 0
17 58 107 132 0
-24 -41 109 132 0
-39 73 93 -133 0
-23 -69 -94 -133 0
-36 -70 97 -133 0
-14 78 -103 -133 0
-36 -71 -106 -133 0
9 -69 -108 -133 0
-14 -63 -114 -133 0
21 42 115 -133 0
13 78 116 -133 0
-3 65 107 133 0
-3 -70 111 133 0
23 65 -116 133 0
1 67 -119 133 0
5 72 -81 -134 0
8 60 83 -134 0
-7 -54 84 -134 0
28 -68 95 -134 0
33 53 -97 -134 0
-27 47 -99 -134 0
24 -67 -101 -134 0
-28 -78 -102 -134 0
22 63 -103 -134 0
8 64 107 -134 0
-11 -76 81 134 0
-23 -77 -87 134 0
23 -53 -89 134 0
26 -52 89 134 0
13 -70 91 134 0
17 -47 101 134 0
16 51 -105 134 0
33 80 105 134 0
-6 71 -106 134 0
-19 64 -108 134 0
34 65 -81 -135 0
28 -75 90 -135 0
-24 -55 98 -135 0
5 -61 107 -135 0
-28 -47 -109 -135 0
-14 -64 109 -135 0
39 -55 114 -135 0
-14 56 -115 -135 0
-37 56 -120 -135 0
37 54 87 135 0
-6 -62 92 135 0
24 44 94 135 0
10 76 -99 135 0
8 73 109 135 0
24 66 -115 135 0
-21 50 117 135 0
-29 72 117 135 0
-14 48 -119 135 0
-21 69 81 -136 0
-21 -68 -89 -136 0
22 -69 90 -136 0
26 -49 98 -136 0
-30 -62 98 -136 0
5 -49 103 -136 0
27 51 -85 136 0
-20 58 90 136 0
15 -60 -96 136 0
-14 -68 96 136 0
1 -50 -97 136 0
-8 -46 -110 136 0
20 -60 111 136 0
17 71 113 136 0
40 -53 -86 -137 0
34 67 91 -137 0
-29 49 -97 -137 0
-16 -77 -97 -137 0
-6 55 -105 -137 0
-25 -66 -81 137 0
-40 51 93 137 0
11 59 95 137 0
1 -51 -96 137 0
8 -54 -110 137 0
32 66 111 137 0
-6 55 115 137 0
12 43 -119 137 0
9 71 87 -138 0
-37 42 88 -138 0
-38 -77 -91 -138 0
-32 78 95 -138 0
-5 78 -100 -138 0
40 -68 118 -138 0
17 50 82 138 0
18 -80 82 138 0
-32 -63 96 138 0
-16 -67 -106 138 0
-16 49 -108 138 0
35 49 -116 138 0
-19 64 -119 138 0
-8 64 -84 -139 0
-10 58 96 -139 0
-9 -54 -100 -139 0
-22 57 -105 -139 0
-4 61 -105 -139 0
-21 -61 105 -139 0
-32 54 107 -139 0
16 75 110 -139 0
-39 53 112 -139 0
-40 45 -88 139 0
38 70 -91 139 0
-32 77 97 139 0
31 -52 -105 139 0
-12 -57 -107 139 0
-38 78 113 139 0
30 68 -114 139 0
-36 -57 120 139 0
33 55 -81 -140 0
19 66 81 -140 0
-10 -74 -95 -140 0
-35 -72 100 -140 0
6 54 104 -140 0
28 -75 -105 -140 0
10 -41 -111 -140 0
-11 -68 -112 -140 0
-28 -56 85 140 0
-17 -49 89 140 0
-34 63 -90 140 0
35 69 -95 140 0
13 -54 97 140 0
19 -66 98 140 0
15 49 -100 140 0
-19 61 101 140 0
34 54 -102 140 0
37 -71 102 140 0
39 54 104 140 0
-40 -66 115 140 0
-26 64 -118 140 0
-15 79 -118 140 0
-7 66 -119 140 0
-28 77 -81 -141 0
-20 -78 -85 -141 0
11 -74 92 -141 0
9 -79 94 -141 0
28 -78 -95 -141 0
15 -74 -99 -141 0
-12 -75 100 -141 0
11 75 -101 -141 0
-30 -80 -102 -141 0
1 -53 -103 -141 0
-35 -62 -111 -141 0
-11 -50 -116 -141 0
-19 -46 83 141 0
-38 78 85 141 0
-23 -72 -86 141 0
39 58 -99 141 0
19 77 -100 141 0
-23 -65 113 141 0
-33 72 113 141 0
-22 -46 83 -142 0
11 -48 88 -142 0
19 -79 91 -142 0
-17 -60 105 -142 0
-26 77 -118 -142 0
-33 67 -120 -142 0
-18 -60 84 142 0
39 62 86 142 0
11 -48 95 142 0
-40 57 96 142 0
-10 54 -111 142 0
35 71 115 142 0
3 -66 116 142 0
-11 -58 -117 142 0
27 69 -120 142 0
-32 76 83 -143 0
12 -68 -96 -143 0
22 52 -98 -143 0
-15 72 -101 -143 0
22 48 -106 -143 0
-27 57 86 143 0
37 72 87 143 0
8 -76 87 143 0
10 47 88 143 0
-37 -59 88 143 0
-24 -42 -89 143 0
23 -61 -96 143 0
-24 65 -98 143 0
-36 -60 -112 143 0
34 -52 -115 143 0
28 57 94 -144 0
22 52 -98 -144 0
-31 48 -104 -144 0
30 -68 -106 -144 0
30 -60 111 -144 0
28 57 85 144 0
25 57 99 144 0
-35 -75 101 144 0
-33 -64 -103 144 0
-40 -45 -118 144 0
7 51 119 144 0
-1 -51 90 -145 0
-5 59 -93 -145 0
36 -51 103 -145 0
-17 -51 -104 -145 0
33 63 -112 -145 0
36 69 -83 145 0
40 65 -93 145 0
-29 -74 -94 145 0
-14 79 105 145 0
29 -67 109 145 0
17 47 -81 -146 0
9 46 -85 -146 0
19 50 -95 -146 0
-34 -42 102 -146 0
-6 76 103 -146 0
-22 53 -108 -146 0
3 -66 -109 -146 0
11 64 -111 -146 0
-29 -61 -114 -146 0
21 45 115 -146 0
19 64 116 -146 0
-8 -67 -118 -146 0
-21 79 -82 146 0
-17 51 84 146 0
8 43 88 146 0
31 -69 89 146 0
-21 70 -96 146 0
30 68 99 146 0
-11 60 -102 146 0
-15 53 -118 146 0
37 -66 -83 -147 0
-15 64 91 -147 0
24 -50 -96 -147 0
15 -51 -106 -147 0
32 56 110 -147 0
5 -57 113 -147 0
-6 49 83 147 0
14 -73 84 147 0
-1 -55 -96 147 0
10 -57 -110 147 0
-32 -71 -110 147 0
13 56 112 147 0
-20 63 113 147 0
-7 -58 -115 147 0
5 -65 -81 -148 0
-5 -62 83 -148 0
35 57 84 -148 0
4 -59 -87 -148 0
-31 41 92 -148 0
-6 -60 -95 -148 0
-16 71 -95 -148 0
1 -68 -97 -148 0
39 79 102 -148 0
34 -64 107 -148 0
23 -63 -116 -148 0
-40 -73 116 -148 0
-23 77 84 148 0
-27 -80 91 148 0
18 -50 102 148 0
-29 63 -109 148 0
-20 -46 118 148 0
-11 64 -84 -149 0
4 56 -90 -149 0
-8 50 94 -149 0
-10 76 99 -149 0
-40 -54 -105 -149 0
37 -69 -105 -149 0
24 51 112 -149 0
35 -62 -117 -149 0
24 -77 118 -149 0
38 50 -87 149 0
6 52 96 149 0
-39 79 108 149 0
27 -50 112 149 0
2 -49 -120 149 0
-25 -43 97 -150 0
-16 -57 100 -150 0
-14 76 102 -150 0
18 78 -110 -150 0
-39 46 112 -150 0
27 -76 -116 -150 0
5 -46 -119 -150 0
12 -72 -119 -150 0
-22 -45 -87 150 0
35 -46 93 150 0
16 76 93 150 0
24 -45 -104 150 0
-17 -67 -87 -151 0
-1 43 -88 -151 0
32 -71 89 -151 0
15 -59 104 -151 0
16 75 -105 -151 0
23 -43 -106 -151 0
-3 -65 111 -151 0
36 -74 113 -151 0
32 -50 -116 -151 0
-5 -70 -116 -151 0
-8 -50 117 -151 0
-26 73 -86 151 0
-23 51 87 151 0
-9 -46 100 151 0
7 55 102 151 0
-19 72 104 151 0
-6 -46 -108 151 0
-8 41 -110 151 0
16 73 -81 -152 0
9 50 81 -152 0
19 78 82 -152 0
14 -69 95 -152 0
16 -73 97 -152 0
-13 60 102 -152 0
27 -43 -82 152 0
4 44 90 152 0
-35 -67 -95 152 0
-11 -51 -99 152 0
-7 75 -105 152 0
-5 51 -109 152 0
4 -75 109 152 0
4 41 116 152 0
-31 -73 83 -153 0
33 -57 84 -153 0
-28 -68 89 -153 0
-15 -63 93 -153 0
6 -78 97 -153 0
-35 -73 100 -153 0
15 -53 -105 -153 0
32 -62 117 -153 0
-21 41 -120 -153 0
5 -44 -82 153 0
-24 79 -82 153 0
-39 -60 83 153 0
27 -55 89 153 0
-19 71 -90 153 0
-14 52 -96 153 0
-35 -72 100 153 0
5 -77 -102 153 0
15 -62 -116 153 0
-14 42 -120 153 0
20 -41 -88 -154 0
-3 -72 -89 -154 0
-38 70 -95 -154 0
20 -77 -96 -154 0
16 -45 98 -154 0
1 64 99 -154 0
26 62 103 -154 0
-2 65 -104 -154 0
26 -69 110 -154 0
-3 -67 -88 154 0
19 63 -91 154 0
-26 -65 103 154 0
1 -80 112 154 0
-2 -58 -116 154 0
-3 -63 -119 154 0
-13 47 86 -155 0
-17 48 88 -155 0
27 52 89 -155 0
7 -61 89 -155 0
-20 66 -90 -155 0
12 80 -92 -155 0
-18 61 101 -155 0
-1 -49 102 -155 0
39 -67 -109 -155 0
-23 -80 116 -155 0
29 -65 -117 -155 0
-3 60 -119 -155 0
20 -67 119 -155 0
25 71 -82 155 0
-11 67 -83 155 0
39 51 -86 155 0
32 58 86 155 0
-27 -53 -89 155 0
-25 -80 -90 155 0
6 50 97 155 0
-36 -53 -109 155 0
25 68 83 -156 0
23 60 -88 -156 0
-4 -64 93 -156 0
-38 70 98 -156 0
25 -48 -105 -156 0
2 -66 -106 -156 0
-11 -67 -107 -156 0
-36 59 -113 -156 0
-13 70 113 -156 0
12 -69 -88 156 0
13 -71 94 156 0
-19 -49 98 156 0
-33 47 99 156 0
-6 50 101 156 0
14 74 -113 156 0
-28 69 87 -157 0
28 79 87 -157 0
-27 -75 89 -157 0
-33 70 92 -157 0
-29 -71 -94 -157 0
-19 -80 103 -157 0
24 -52 106 -157 0
24 -65 -112 -157 0
-37 -43 -113 -157 0
22 -44 -117 -157 0
-20 -62 -84 157 0
31 44 -94 157 0
-34 56 -98 157 0
-25 -47 99 157 0
30 -79 -110 157 0
-17 70 117 157 0
26 56 -118 157 0
-14 67 -120 157 0
19 44 -83 -158 0
33 -67 87 -158 0
21 57 88 -158 0
33 -78 -91 -158 0
22 -69 92 -158 0
-10 -79 -99 -158 0
37 -52 -101 -158 0
14 80 -107 -158 0
7 68 -109 -158 0
28 63 110 -158 0
4 -48 117 -158 0
22 73 -119 -158 0
-16 -48 88 158 0
29 62 107 158 0
-30 -46 -113 158 0
-10 -75 114 158 0
20 52 -119 158 0
16 -56 -120 158 0
-29 66 -91 -159 0
-15 -43 -98 -159 0
39 46 100 -159 0
1 65 -103 -159 0
-29 -47 105 -159 0
36 -68 108 -159 0
-37 59 -109 -159 0
38 67 113 -159 0
-18 -60 91 159 0
-24 -50 -96 159 0
-15 -59 -97 159 0
2 -76 -109 159 0
-31 -43 109 159 0
26 74 110 159 0
-32 60 111 159 0
26 -54 -115 159 0
-39 -78 -119 159 0
-40 -59 120 159 0
-31 72 81 -160 0
-4 53 -82 -160 0
-35 61 -84 -160 0
-21 41 -85 -160 0
-12 -46 -86 -160 0
-28 75 -91 -160 0
10 -57 -94 -160 0
-5 -76 106 -160 0
-6 41 -107 -160 0
-17 -60 109 -160 0
-38 53 112 -160 0
1 -61 -114 -160 0
38 -51 -115 -160 0
5 56 -118 -160 0
-39 -54 101 160 0
27 48 -110 160 0
-6 61 -110 160 0
38 76 -117 160 0
